false false false
presolving:
presolving (0 rounds: 0 fast, 0 medium, 0 exhaustive):
 0 deleted vars, 0 deleted constraints, 0 added constraints, 0 tightened bounds, 0 added holes, 0 changed sides, 0 changed coefficients
 0 implications, 0 cliques
presolved problem has 67 variables (67 bin, 0 int, 0 impl, 0 cont) and 58 constraints
     58 constraints of type <linear>
transformed objective value is always integral (scale: 1)
Presolving Time: 0.00

 time | node  | left  |LP iter|LP it/n|mem/heur|mdpt |vars |cons |rows |cuts |sepa|confs|strbr|  dualbound   | primalbound  |  gap   | compl. 
p 0.0s|     1 |     0 |     0 |     - |shiftand|   0 |  67 |  58 |  58 |   0 |  0 |   0 |   0 |      --      | 9.000000e+00 |    Inf | unknown
 time | node  | left  |LP iter|LP it/n|mem/heur|mdpt |vars |cons |rows |cuts |sepa|confs|strbr|  dualbound   | primalbound  |  gap   | compl. 
  7.1s|     1 |     0 |    34 |     - |  6480k |   0 |1758 |  58 |  58 |   0 |  0 |   0 |   0 |-1.620000e+02 | 9.000000e+00 |    Inf | unknown
slurmstepd-htc-cmp473: error: *** JOB 16657475 ON htc-cmp473 CANCELLED AT 2024-01-28T06:02:05 DUE TO TIME LIMIT ***
